
Welcome to IBM(R) ILOG(R) CPLEX(R) Interactive Optimizer 22.1.1.0
  with Simplex, Mixed Integer & Barrier Optimizers
5725-A06 5725-A29 5724-Y48 5724-Y49 5724-Y54 5724-Y55 5655-Y21
Copyright IBM Corp. 1988, 2022.  All Rights Reserved.

Type 'help' for a list of available commands.
Type 'help' followed by a command name for more
information on commands.

CPLEX> Selected objective sense:  MINIMIZE
Selected objective  name:  00000000
Selected RHS        name:  RHS1
Selected bound      name:  BOUND
Problem 'ee.mps' read.
Read time = 0.03 sec. (3.17 ticks)
CPLEX> New value for time limit in seconds: 7200
CPLEX> New value for parallel optimization mode: -1
CPLEX> New value for default parallel thread count: 40
CPLEX> New value for mixed integer optimality gap tolerance: 1e-13
CPLEX> Version identifier: 22.1.1.0 | 2022-11-28 | 9160aff4d
CPXPARAM_Threads                                 40
CPXPARAM_Parallel                                -1
CPXPARAM_TimeLimit                               7200
CPXPARAM_MIP_Tolerances_MIPGap                   1e-13
Found incumbent of value 0.000000 after 0.00 sec. (0.31 ticks)
Tried aggregator 2 times.
MIP Presolve eliminated 182 rows and 2745 columns.
MIP Presolve modified 6090 coefficients.
Aggregator did 713 substitutions.
Reduced MIP has 3636 rows, 7840 columns, and 28952 nonzeros.
Reduced MIP has 7840 binaries, 0 generals, 0 SOSs, and 0 indicators.
Presolve time = 0.07 sec. (69.14 ticks)
Probing time = 0.03 sec. (5.87 ticks)
Tried aggregator 1 time.
Detecting symmetries...
Reduced MIP has 3636 rows, 7840 columns, and 28952 nonzeros.
Reduced MIP has 7840 binaries, 0 generals, 0 SOSs, and 0 indicators.
Presolve time = 0.03 sec. (22.08 ticks)
Probing time = 0.02 sec. (5.67 ticks)
Clique table members: 18787.
MIP emphasis: balance optimality and feasibility.
MIP search method: dynamic search.
Parallel mode: opportunistic, using up to 40 threads.
Root relaxation solution time = 0.17 sec. (137.22 ticks)

        Nodes                                         Cuts/
   Node  Left     Objective  IInf  Best Integer    Best Bound    ItCnt     Gap

*     0+    0                            0.0000  -1.54000e+13              --- 
*     0+    0                      -7.20000e+12  -1.54000e+13           113.89%
      0     0  -1.53900e+13   125  -7.20000e+12  -1.53900e+13     2875  113.75%
*     0+    0                      -1.53900e+13  -1.53900e+13             0.00%
      0     0  -1.53900e+13   167  -1.53900e+13     Cuts: 127     3286    0.00%
*     0+    0                      -1.53900e+13  -1.53900e+13             0.00%
      0     0  -1.53900e+13   204  -1.53900e+13      Cuts: 70     3916    0.00%
*     0+    0                      -1.53900e+13  -1.53900e+13             0.00%
      0     2  -1.53900e+13   192  -1.53900e+13  -1.53900e+13     3916    0.00%
Elapsed time = 2.77 sec. (1356.88 ticks, tree = 0.02 MB, solutions = 7)
     36    76  -1.53900e+13   227  -1.53900e+13  -1.53900e+13    63078    0.00%
    296    66  -1.53900e+13    87  -1.53900e+13  -1.53900e+13    39661    0.00%
    844    62  -1.53900e+13   110  -1.53900e+13  -1.53900e+13    42271    0.00%
   1237   264  -1.53900e+13   109  -1.53900e+13  -1.53900e+13   162890    0.00%
   1538    92        cutoff        -1.53900e+13  -1.53900e+13    79569    0.00%
   1828   318  -1.53900e+13    38  -1.53900e+13  -1.53900e+13   209905    0.00%
   2087   238  -1.53900e+13   175  -1.53900e+13  -1.53900e+13   138906    0.00%
   2327   368  -1.53900e+13   305  -1.53900e+13  -1.53900e+13   260638    0.00%
   2492   478        cutoff        -1.53900e+13  -1.53900e+13   337450    0.00%
   3173   773  -1.53900e+13   268  -1.53900e+13  -1.53900e+13   476721    0.00%
Elapsed time = 9.08 sec. (4467.49 ticks, tree = 4.17 MB, solutions = 8)
   4171   934  -1.53900e+13   168  -1.53900e+13  -1.53900e+13   568843    0.00%
   5483  1221    infeasible        -1.53900e+13  -1.53900e+13   708294    0.00%
   6559  1441  -1.53900e+13    74  -1.53900e+13  -1.53900e+13   797954    0.00%
   7573  3128  -1.53900e+13   123  -1.53900e+13  -1.53900e+13  1534788    0.00%
   8588  1952  -1.53900e+13    81  -1.53900e+13  -1.53900e+13   959503    0.00%
   9239  2909  -1.53900e+13    83  -1.53900e+13  -1.53900e+13  1425721    0.00%
   9786  2746  -1.53900e+13   186  -1.53900e+13  -1.53900e+13  1321123    0.00%
  10237  3155  -1.53900e+13   153  -1.53900e+13  -1.53900e+13  1554714    0.00%
  10642  3133  -1.53900e+13   152  -1.53900e+13  -1.53900e+13  1540861    0.00%

Performing restart 1

Repeating presolve.
Tried aggregator 2 times.
MIP Presolve eliminated 28 rows and 27 columns.
MIP Presolve modified 1866 coefficients.
Aggregator did 8 substitutions.
Reduced MIP has 3524 rows, 7805 columns, and 28239 nonzeros.
Reduced MIP has 7805 binaries, 0 generals, 0 SOSs, and 0 indicators.
Presolve time = 0.04 sec. (28.63 ticks)
Tried aggregator 2 times.
MIP Presolve eliminated 36 rows and 149 columns.
MIP Presolve modified 28 coefficients.
Aggregator did 47 substitutions.
Reduced MIP has 3441 rows, 7591 columns, and 27481 nonzeros.
Reduced MIP has 7591 binaries, 0 generals, 0 SOSs, and 0 indicators.
Presolve time = 0.05 sec. (46.83 ticks)
Tried aggregator 2 times.
MIP Presolve eliminated 3 rows and 13 columns.
Aggregator did 3 substitutions.
Reduced MIP has 3435 rows, 7574 columns, and 27420 nonzeros.
Reduced MIP has 7574 binaries, 0 generals, 0 SOSs, and 0 indicators.
Presolve time = 0.04 sec. (43.18 ticks)
Represolve time = 0.35 sec. (236.98 ticks)
  10835     0  -1.53900e+13   462  -1.53900e+13      Cuts: 55  1975833    0.00%
  10835     0  -1.53900e+13   423  -1.53900e+13      Cuts: 63  1976059    0.00%
  10835     0  -1.53900e+13   319  -1.53900e+13      Cuts: 43  1976311    0.00%
  10835     0  -1.53900e+13   363  -1.53900e+13      Cuts: 39  1976420    0.00%
  10835     0  -1.53900e+13   369  -1.53900e+13      Cuts: 27  1976770    0.00%
  10835     0  -1.53900e+13   372  -1.53900e+13      Cuts: 24  1976856    0.00%
  10835     0  -1.53900e+13   388  -1.53900e+13      Cuts: 36  1976996    0.00%
  10835     0  -1.53900e+13   389  -1.53900e+13      Cuts: 44  1977382    0.00%
  10835     4        cutoff        -1.53900e+13  -1.53900e+13  1982024    0.00%
Elapsed time = 26.68 sec. (18160.09 ticks, tree = 0.02 MB, solutions = 13)
  11287     5  -1.53900e+13   267  -1.53900e+13  -1.53900e+13  1997445    0.00%
  11368    16  -1.53900e+13   168  -1.53900e+13  -1.53900e+13  2007740    0.00%

GUB cover cuts applied:  10
Clique cuts applied:  8
Cover cuts applied:  278
Flow cuts applied:  3
Mixed integer rounding cuts applied:  21
Zero-half cuts applied:  56
Lift and project cuts applied:  4
Gomory fractional cuts applied:  22

Root node processing (before b&c):
  Real time             =    1.47 sec. (1340.23 ticks)
Parallel b&c, 40 threads:
  Real time             =   29.04 sec. (18796.54 ticks)
  Sync time (average)   =    5.45 sec.
  Wait time (average)   =    0.12 sec.
                          ------------
Total (root+branch&cut) =   30.50 sec. (20136.77 ticks)

Solution pool: 15 solutions saved.

MIP - Integer optimal solution:  Objective = -1.5389998389e+13
Solution time =   30.61 sec.  Iterations = 2013581  Nodes = 11375
Deterministic time = 20136.80 ticks  (657.84 ticks/sec)

CPLEX> Solution 'p16' written to file 'ee.sol'.
CPLEX> 